; benchmark generated from python API
(set-info :status unknown)
(declare-fun A_2 () Real)
(declare-fun B () Real)
(declare-fun A_3 () Real)
(declare-fun A_4 () Real)
(declare-fun A_5 () Real)
(declare-fun S_3 () Real)
(declare-fun S_5 () Real)
(declare-fun L_1 () Real)
(declare-fun S_4 () Real)
(declare-fun S_0 () Real)
(declare-fun S_1 () Real)
(declare-fun S_2 () Real)
(declare-fun A_1 () Real)
(declare-fun L_0 () Real)
(declare-fun A_0 () Real)
(assert
 (let (($x4399 (<= (+ S_5 (* (- 1.0) A_5) (* (- 1.0) S_3) (* (- 1.0) B) A_2) 0.0)))
 (let (($x2851 (<= (+ (* (- 1.0) A_4) S_4 A_2 (* (- 1.0) S_3) (* (- 1.0) B)) 0.0)))
 (let (($x3035 (<= (+ S_5 (* (- 1.0) A_5) (* (- 1.0) S_4) (* (- 1.0) B) A_3) 0.0)))
 (let (($x2525 (<= (+ (* (- 1.0) S_2) (* (- 1.0) L_1) (* (- 1.0) B) A_1) 0.0)))
 (let (($x1853 (<= (+ A_0 (* (- 1.0) S_1) (* (- 1.0) B) (* (- 1.0) L_1)) 0.0)))
 (let (($x1875 (>= B 0.0)))
 (let ((?x1187 (* (- 1.0) A_2)))
 (let ((?x1075 (* (- 1.0) A_0)))
 (let ((?x2516 (* 2.0 A_1)))
 (let ((?x1055 (* (- 1.0) L_1)))
 (let (($x43463 (<= (+ ?x1055 ?x2516 L_0 B ?x1075 ?x1187) 0.0)))
 (let ((?x1821 (* (- 1.0) S_4)))
 (let ((?x9288 (* (/ 1.0 2.0) S_5)))
 (let ((?x5841 (* (/ 1.0 2.0) A_1)))
 (let ((?x5790 (* (- (/ 1.0 2.0)) L_1)))
 (let (($x42919 (<= (+ ?x5790 ?x5841 ?x9288 ?x1821) 0.0)))
 (let ((?x1353 (* (- 1.0) A_1)))
 (let ((?x12966 (* (- (/ 4.0 5.0)) L_0)))
 (let ((?x12965 (* (/ 4.0 5.0) A_0)))
 (let ((?x12963 (* (/ 1.0 5.0) S_5)))
 (let (($x12993 (<= (+ ?x12963 ?x12965 ?x12966 L_1 ?x1353) 0.0)))
 (let (($x3094 (<= (+ (* 2.0 A_2) ?x1821 ?x1055 ?x1353) 0.0)))
 (let (($x2852 (= B 0.0)))
 (let (($x1702 (<= (+ A_3 ?x1821 ?x1055) 0.0)))
 (let ((?x15074 (* (- (/ 1.0 3.0)) L_0)))
 (let ((?x15130 (* (/ 1.0 3.0) A_0)))
 (let ((?x2200 (* (- (/ 1.0 3.0)) S_4)))
 (let ((?x1258 (* (- 1.0) A_4)))
 (let (($x102282 (<= (+ S_5 ?x1258 ?x2200 ?x15130 ?x15074 L_1) 0.0)))
 (let (($x62199 (<= (+ A_3 ?x1821 (* (- 2.0) L_1) ?x2516 L_0 B ?x1075 ?x1187) 0.0)))
 (let (($x39542 (<= (+ S_5 ?x1258 (* (/ 1.0 2.0) L_1) ?x5841 (* (- (/ 1.0 2.0)) S_4)) 0.0)))
 (let ((?x25351 (* (- (/ 1.0 3.0)) A_2)))
 (let ((?x15146 (* (/ 1.0 3.0) B)))
 (let ((?x15083 (* (- (/ 2.0 3.0)) A_4)))
 (let ((?x17469 (* (/ 2.0 3.0) S_5)))
 (let (($x27143 (<= (+ ?x17469 ?x15083 A_3 ?x1821 ?x15130 ?x15074 ?x15146 ?x25351) 0.0)))
 (let (($x8874 (<= (+ S_5 ?x1258 A_2 ?x1821) 0.0)))
 (let (($x3055 (<= (+ S_4 L_1 B (* (- 1.0) A_3)) 0.0)))
 (let (($x42833 (not $x43463)))
 (let (($x8636 (<= (+ ?x5790 (* (- (/ 1.0 2.0)) A_1) (* (- (/ 1.0 2.0)) S_4) (* (- 1.0) B) A_2) 0.0)))
 (let (($x8578 (not $x8636)))
 (let ((?x31130 (* (/ 3.0 4.0) A_4)))
 (let ((?x28843 (* (- (/ 3.0 4.0)) B)))
 (let ((?x84279 (* (- (/ 3.0 4.0)) A_5)))
 (let ((?x16710 (* (- (/ 1.0 4.0)) L_0)))
 (let ((?x16721 (* (/ 1.0 4.0) A_0)))
 (let ((?x16674 (* (/ 3.0 4.0) S_5)))
 (let (($x84282 (<= (+ ?x16674 ?x16721 ?x16710 ?x84279 ?x1821 ?x28843 ?x31130) 0.0)))
 (let ((?x15070 (* (/ 2.0 3.0) A_4)))
 (let ((?x15084 (* (- (/ 1.0 3.0)) B)))
 (let ((?x17516 (* (- (/ 2.0 3.0)) A_5)))
 (let ((?x15134 (* (/ 1.0 3.0) A_3)))
 (let (($x48841 (<= (+ ?x17469 ?x15134 ?x17516 ?x1821 ?x15130 ?x15074 ?x15084 ?x25351 ?x15070) 0.0)))
 (let (($x20350 (<= (+ (* (/ 1.0 3.0) S_4) (* (/ 2.0 3.0) A_0) (* (- (/ 2.0 3.0)) L_0) L_1 ?x1353) 0.0)))
 (let (($x20392 (not $x20350)))
 (let ((?x9352 (* (/ 1.0 2.0) A_4)))
 (let ((?x5834 (* (- (/ 1.0 2.0)) B)))
 (let ((?x13742 (* (- (/ 1.0 2.0)) A_5)))
 (let ((?x5828 (* (/ 1.0 2.0) A_2)))
 (let (($x13788 (<= (+ ?x5828 ?x9288 ?x13742 ?x1821 ?x5790 ?x5834 ?x9352) 0.0)))
 (let ((?x27193 (* (- (/ 2.0 3.0)) A_2)))
 (let ((?x15072 (* (/ 2.0 3.0) B)))
 (let ((?x2115 (* (/ 2.0 3.0) A_1)))
 (let ((?x2157 (* (- (/ 2.0 3.0)) L_1)))
 (let ((?x15132 (* (/ 2.0 3.0) A_3)))
 (let ((?x17518 (* (/ 1.0 3.0) S_5)))
 (let (($x63600 (<= (+ ?x17518 ?x15132 ?x1821 ?x2157 ?x2115 ?x15072 ?x27193) 0.0)))
 (let ((?x5844 (* (- (/ 1.0 2.0)) A_2)))
 (let ((?x5796 (* (/ 1.0 2.0) B)))
 (let ((?x9089 (* (- (/ 1.0 2.0)) L_0)))
 (let ((?x12288 (* (/ 1.0 2.0) A_0)))
 (let ((?x5817 (* (/ 1.0 2.0) A_3)))
 (let (($x61137 (<= (+ ?x9288 ?x5817 ?x1821 ?x12288 ?x9089 ?x5796 ?x5844) 0.0)))
 (let (($x11301 (<= (+ (* (/ 3.0 5.0) S_5) (* (/ 2.0 5.0) A_0) (* (- (/ 2.0 5.0)) L_0) ?x1821) 0.0)))
 (let (($x54619 (<= (+ ?x9288 ?x5817 ?x13742 ?x1821 ?x5790 ?x5841 ?x5844 ?x9352) 0.0)))
 (let (($x8664 (<= (+ (* (- (/ 3.0 2.0)) L_1) (* (/ 3.0 2.0) A_1) (* (- (/ 1.0 2.0)) S_4) L_0 ?x1075) 0.0)))
 (let (($x172743 (<= (+ (* (- (/ 1.0 2.0)) S_5) ?x5817 (* (- (/ 3.0 2.0)) L_1) A_1 L_0 ?x1075) 0.0)))
 (let (($x38086 (<= (+ (* (/ 2.0 3.0) A_2) ?x17518 ?x1821 ?x2157) 0.0)))
 (let (($x27594 (<= (+ A_3 ?x1821 ?x1075 L_0 (* (- 1.0) B) (* (- 2.0) L_1) ?x2516 ?x1187) 0.0)))
 (let (($x12995 (<= (+ (* (/ 2.0 5.0) S_5) (* (/ 3.0 5.0) A_0) (* (- (/ 3.0 5.0)) L_0) L_1 ?x1187) 0.0)))
 (let (($x43003 (<= (+ (* (/ 1.0 4.0) L_1) (* (/ 3.0 4.0) A_1) (* (/ 1.0 4.0) S_5) ?x1187) 0.0)))
 (let ((?x2479 (* 3.0 A_1)))
 (let ((?x1872 (* (- 3.0) L_1)))
 (let ((?x2515 (* (- 2.0) B)))
 (let ((?x2443 (* 2.0 L_0)))
 (let ((?x2437 (* (- 2.0) A_0)))
 (let ((?x1839 (* (- 1.0) S_5)))
 (let (($x51514 (<= (+ ?x1839 A_3 ?x2437 ?x2443 ?x2515 ?x1872 ?x2479 ?x1187) 0.0)))
 (let (($x27583 (<= (+ ?x1839 A_4 ?x1075 L_0 (* (- 1.0) B) (* (- 2.0) L_1) ?x2516 ?x1187) 0.0)))
 (let ((?x1095 (* (- 1.0) B)))
 (let ((?x16732 (* (/ 3.0 4.0) L_0)))
 (let ((?x16731 (* (- (/ 3.0 4.0)) A_0)))
 (let ((?x16665 (* (- (/ 1.0 4.0)) S_5)))
 (let (($x16736 (<= (+ ?x16665 ?x16731 ?x16732 ?x1055 ?x1095 A_1) 0.0)))
 (let (($x5599 (<= (+ ?x1839 A_4 ?x2437 ?x2443 ?x1872 ?x2515 ?x2479 (* (- 1.0) A_3)) 0.0)))
 (let ((?x3084 (* 3.0 A_2)))
 (let ((?x1738 (* 2.0 S_5)))
 (let ((?x2527 (* (- 2.0) A_1)))
 (let ((?x1775 (* 2.0 L_1)))
 (let (($x3416 (<= (+ A_4 (* (- 1.0) A_5)) 0.0)))
 (let (($x1052778 (or $x3416 (<= (+ S_5 A_3 (* (- 2.0) A_5) L_1 ?x1353 ?x1095 A_2) 0.0) (<= (+ ?x1775 ?x2527 ?x1738 (* (- 3.0) A_5) (* (- 3.0) B) ?x3084) 0.0))))
 (let ((?x25392 (* (/ 1.0 4.0) A_4)))
 (let ((?x31548 (* (- (/ 1.0 4.0)) B)))
 (let ((?x84289 (* (- (/ 1.0 4.0)) A_5)))
 (let ((?x16661 (* (- (/ 3.0 4.0)) L_0)))
 (let ((?x16702 (* (/ 3.0 4.0) A_0)))
 (let ((?x16662 (* (/ 1.0 4.0) S_5)))
 (let (($x84351 (<= (+ ?x16662 ?x16702 ?x16661 ?x84289 L_1 ?x31548 ?x1353 ?x25392) 0.0)))
 (let ((?x15131 (* (- (/ 2.0 3.0)) B)))
 (let ((?x2144 (* (/ 1.0 3.0) A_1)))
 (let ((?x2146 (* (- (/ 1.0 3.0)) L_1)))
 (let (($x42159 (<= (+ ?x2146 ?x2144 ?x17469 ?x17516 ?x1821 ?x15131 ?x15070) 0.0)))
 (let (($x100816 (<= (+ (* (/ 2.0 3.0) L_1) (* (- (/ 2.0 3.0)) A_1) (* (- (/ 1.0 3.0)) S_5) S_2) 0.0)))
 (let (($x97719 (<= (+ ?x1839 A_3 ?x1353 S_2) 0.0)))
 (let (($x36776 (<= (+ ?x1839 A_4 L_1 ?x1353 (* 2.0 S_2) B (* (- 1.0) A_3)) 0.0)))
 (let (($x26953 (<= (+ ?x1839 A_4 S_2 B ?x1187) 0.0)))
 (let (($x8271 (<= (+ ?x1839 A_4 ?x1055) 0.0)))
 (let (($x473056 (or $x2852 $x8271 $x26953 $x36776 (<= (+ ?x1839 A_3 L_1 ?x1353 (* 2.0 S_2) B ?x1187) 0.0) $x97719 $x100816)))
 (let ((?x12734 (* (/ 3.0 2.0) S_2)))
 (let ((?x9527 (* (/ 1.0 2.0) L_0)))
 (let ((?x13444 (* (- (/ 1.0 2.0)) A_0)))
 (let (($x50767 (<= (+ ?x1839 A_3 ?x13444 ?x9527 ?x12734 B ?x1187) 0.0)))
 (let (($x16664 (<= (+ (* (- (/ 1.0 2.0)) S_5) ?x13444 ?x9527 S_2) 0.0)))
 (let (($x202071 (<= (+ ?x1839 A_3 ?x13444 ?x9527 (* (/ 1.0 2.0) S_2) ?x1055) 0.0)))
 (let (($x26957 (<= (+ S_2 L_1 B ?x1187) 0.0)))
 (let (($x12576 (<= (+ ?x1839 A_4 ?x13444 ?x9527 ?x12734 B (* (- 1.0) A_3)) 0.0)))
 (let (($x59501 (<= (+ ?x5828 (* (- (/ 1.0 2.0)) S_5) ?x1075 L_0 S_1 ?x5790) 0.0)))
 (let (($x16734 (<= (+ ?x16665 ?x16731 ?x16732 S_1) 0.0)))
 (let (($x13656 (<= (+ ?x1839 A_4 ?x2437 ?x2443 (* 3.0 S_1) B (* (- 1.0) A_3)) 0.0)))
 (let (($x3369 (<= (+ ?x1839 A_4 A_2 ?x1075 L_0 S_1 ?x1055 B (* (- 1.0) A_3)) 0.0)))
 (let (($x415752 (or $x2852 $x3369 $x8271 $x13656 $x16734 (<= (+ ?x1075 L_0 (* 2.0 S_1) L_1 B ?x1187) 0.0) (<= (+ ?x1075 L_0 S_1 A_3 ?x1258) 0.0) $x59501)))
 (let ((?x39194 (* (- (/ 3.0 2.0)) B)))
 (let ((?x40835 (* (- (/ 3.0 2.0)) A_5)))
 (let ((?x5833 (* (- (/ 1.0 2.0)) A_1)))
 (let ((?x5754 (* (/ 1.0 2.0) L_1)))
 (let (($x169851 (not (<= (+ A_0 (* (- 1.0) L_0) L_1 ?x1095 ?x2527 A_2) 0.0))))
 (let (($x4027 (<= (+ A_2 A_0 (* (- 1.0) L_0) L_1 (* 2.0 B) ?x2527) 0.0)))
 (let (($x1871 (<= (+ ?x1839 A_3 ?x1075 L_0 ?x1095 (* (- 2.0) L_1) A_1) 0.0)))
 (let (($x100802 (<= (+ (* (/ 1.0 3.0) L_1) (* (- (/ 1.0 3.0)) A_1) (* (- (/ 2.0 3.0)) S_5) S_3) 0.0)))
 (let (($x38710 (<= (+ ?x1839 A_4 ?x5790 ?x5841 (* (/ 1.0 2.0) S_3) B ?x1187) 0.0)))
 (let (($x17183 (<= (+ (* (/ 2.0 3.0) A_0) (* (- (/ 2.0 3.0)) L_0) (* (/ 1.0 3.0) S_3) L_1 ?x1353) 0.0)))
 (let (($x3385 (<= (+ ?x1839 A_4 S_3 B (* (- 1.0) A_3)) 0.0)))
 (let (($x51725 (<= (+ ?x1839 A_3 ?x2437 ?x2443 (* 3.0 S_1) B ?x1187) 0.0)))
 (let (($x18270 (<= (+ ?x1839 A_4 ?x1075 L_0 (* 2.0 S_1) B ?x1187) 0.0)))
 (let (($x1046566 (or $x2852 $x13656 $x16734 $x18270 $x51725 (<= (+ ?x12288 ?x9089 ?x5834 ?x5754 ?x1353 ?x5828) 0.0))))
 (let (($x1059599 (or $x2852 $x8271 $x26953 (<= (+ L_1 ?x1353 S_2 A_3 ?x1258) 0.0) $x36776 $x100816)))
 (let ((?x15533 (* (- (/ 4.0 3.0)) B)))
 (let ((?x15123 (* (/ 1.0 3.0) L_0)))
 (let ((?x15085 (* (- (/ 1.0 3.0)) A_0)))
 (let (($x15734 (<= (+ ?x17518 ?x15085 ?x15123 (* (- (/ 4.0 3.0)) A_5) ?x15533 (* (/ 4.0 3.0) A_3)) 0.0)))
 (let (($x1855 (<= (+ ?x1839 A_3 ?x1075 L_0 S_1 ?x1055) 0.0)))
 (let (($x1060738 (or $x1855 $x2852 $x8271 $x18270 (<= (+ ?x1075 L_0 S_1 ?x1095 A_2 (* (- 1.0) A_3)) 0.0) $x51725)))
 (let ((?x1162 (* (- 1.0) A_3)))
 (let ((?x1848 (* (- 2.0) L_1)))
 (let (($x3430 (<= (+ ?x1839 A_4 A_2 ?x1075 L_0 ?x1848 A_1 ?x1162) 0.0)))
 (let (($x57947 (<= (+ S_5 ?x1075 L_0 (* (- 2.0) A_5) ?x2515 (* 2.0 A_2)) 0.0)))
 (let (($x408663 (or $x2852 $x3385 (<= (+ ?x5754 ?x5841 (* (/ 1.0 2.0) S_3) ?x1187) 0.0) $x8271 (<= (+ ?x5844 (* (- (/ 1.0 2.0)) S_5) S_3 ?x5754) 0.0))))
 (let (($x38491 (<= (+ ?x9288 (* (- (/ 1.0 2.0)) A_4) ?x5754 ?x5841 ?x5796 ?x5844) 0.0)))
 (let (($x1057272 (or $x1702 $x2852 (not (<= (+ A_2 ?x1821 ?x1075 L_0 ?x1848 A_1) 0.0)) $x8874 $x38491 $x39542)))
 (let (($x1058817 (or $x2852 $x8271 (<= (+ ?x13444 ?x9527 (* (/ 1.0 2.0) S_2) A_2 ?x1162) 0.0) $x16664 $x26953 $x50767 $x202071)))
 (let (($x39961 (<= (+ ?x9288 (* (- (/ 1.0 2.0)) A_4) A_3 ?x1821 ?x5790 ?x5841 ?x5796 ?x5844) 0.0)))
 (let (($x39167 (<= (+ S_5 ?x1258 ?x1821 ?x1095 A_2) 0.0)))
 (let ((?x27170 (* (/ 1.0 3.0) A_2)))
 (let ((?x15119 (* (- (/ 2.0 3.0)) L_0)))
 (let ((?x15093 (* (/ 2.0 3.0) A_0)))
 (let ((?x15086 (* (- (/ 1.0 3.0)) A_4)))
 (let (($x27209 (<= (+ ?x17518 ?x15086 ?x15093 ?x15119 L_1 ?x15084 ?x1353 ?x27170) 0.0)))
 (let (($x104470 (<= (+ ?x17469 ?x15083 ?x2146 ?x2144 ?x1821 ?x15131 ?x15132) 0.0)))
 (let (($x9308 (<= (+ ?x9288 (* (- (/ 1.0 2.0)) A_4) ?x5828 ?x1821 ?x5790 ?x5834 ?x5817) 0.0)))
 (let (($x8811 (not $x8874)))
 (let (($x1013969 (or (<= (+ ?x1075 L_0 ?x1055 ?x1095 A_1 A_3 ?x1258) 0.0) $x4027 $x5599 $x8271 $x16736 $x27583 $x169851)))
 (let ((?x1807 (* (- 2.0) A_3)))
 (let ((?x2526 (* 2.0 B)))
 (let ((?x3442 (* 2.0 A_4)))
 (let ((?x1846 (* (- 2.0) S_5)))
 (let (($x399102 (or $x2852 (<= (+ ?x1846 ?x3442 ?x3084 ?x1075 L_0 ?x1872 ?x2526 ?x1807) 0.0) $x5599 $x8271 $x16736 $x27583 (<= (+ ?x5844 (* (- (/ 1.0 2.0)) S_5) ?x5790 ?x1095 A_3) 0.0) (<= (+ (* (/ 3.0 2.0) A_2) (* (- (/ 1.0 2.0)) S_5) ?x5790 ?x1353) 0.0) $x169851)))
 (let ((?x15143 (* (/ 1.0 3.0) A_4)))
 (let ((?x17459 (* (- (/ 1.0 3.0)) A_5)))
 (let ((?x2207 (* (/ 1.0 3.0) L_1)))
 (let (($x41340 (<= (+ ?x2207 ?x2115 ?x17518 ?x17459 ?x15072 ?x1187 ?x15143) 0.0)))
 (let (($x31596 (<= (+ ?x9288 (* (- (/ 1.0 2.0)) A_4) ?x12288 ?x9089 ?x5834 L_1 ?x1187 ?x5817) 0.0)))
 (let (($x31533 (<= (+ ?x16674 (* (- (/ 3.0 4.0)) A_4) ?x1821 ?x16721 ?x16710 ?x28843 (* (/ 3.0 4.0) A_3)) 0.0)))
 (let (($x3092 (<= (+ ?x3084 (* (- 2.0) S_4) ?x1075 L_0 ?x1872) 0.0)))
 (let (($x1033622 (or $x1702 $x3092 $x8664 (not (<= (+ (* (- (/ 2.0 3.0)) S_4) ?x15085 ?x15123 ?x1055 ?x1095 A_2) 0.0)) $x31533)))
 (let (($x1040685 (or $x2852 (<= (+ ?x1055 ?x1821 ?x1095 A_3) 0.0) $x8664 $x8874 $x27143 $x31533 $x43463)))
 (let (($x1062907 (or $x1871 $x2852 (<= (+ A_2 ?x1075 L_0 ?x1055 ?x1095 A_1 ?x1162) 0.0) $x8271 $x16736 $x27583 $x51514)))
 (let (($x8674 (<= (+ ?x5754 ?x5841 (* (/ 1.0 2.0) S_4) ?x1187) 0.0)))
 (let (($x1025137 (or $x1871 $x2852 $x8271 (not (<= (+ (* (- 1.0) S_2) ?x1055 ?x1095 A_2) 0.0)) $x12576 $x16664)))
 (let (($x1019784 (or $x1702 $x2852 $x9308 (<= (+ ?x1187 A_0 (* (- 1.0) L_0) L_1 ?x1353 A_3) 0.0) $x31533 $x43463 $x104470)))
 (let (($x1010613 (or $x1702 $x2852 $x8674 (<= (+ (* (/ 2.0 3.0) S_4) ?x15130 ?x15074 L_1 ?x1187) 0.0) $x38086)))
 (let (($x16725 (<= (+ (* (- (/ 3.0 4.0)) S_5) (* (- (/ 1.0 4.0)) A_0) (* (/ 1.0 4.0) L_0) S_3) 0.0)))
 (let (($x1024867 (or $x2852 $x3385 $x8271 $x16725 (<= (+ ?x1839 A_4 ?x15130 ?x15074 (* (/ 2.0 3.0) S_3) B ?x1187) 0.0) $x38710)))
 (let (($x14824 (<= (+ ?x12288 ?x9089 (* (/ 1.0 2.0) S_3) L_1 ?x1353) 0.0)))
 (let (($x3039 (<= (+ A_2 (* (- 1.0) S_3) ?x1055) 0.0)))
 (let (($x1028586 (or $x2852 $x3039 $x14824 (<= (+ ?x9288 (* (- (/ 1.0 2.0)) A_3) ?x5790 A_1 (* (- 1.0) S_3)) 0.0))))
 (let (($x1025423 (or $x1702 $x2852 (<= (+ ?x1187 S_4 A_0 (* (- 1.0) L_0) ?x1775 ?x1353) 0.0) $x8674 $x9308)))
 (let (($x14433 (<= (+ ?x1187 S_5 (* (- 2.0) A_5) L_1 ?x2515 (* 2.0 A_3)) 0.0)))
 (let (($x42969 (<= (+ (* (- (/ 3.0 4.0)) L_1) (* (/ 3.0 4.0) A_1) ?x16662 (* (- 1.0) S_3)) 0.0)))
 (let (($x453298 (or $x1871 $x2852 $x8271 $x27583 (<= (+ ?x1075 L_0 ?x1055 ?x2515 A_1 A_2 ?x1162) 0.0) $x51514)))
 (let (($x28028 (<= (+ ?x1848 ?x2516 (* (- 1.0) S_3) L_0 ?x1075) 0.0)))
 (let (($x1045778 (or $x2852 $x3039 $x28028 (<= (+ ?x9288 ?x12288 ?x9089 ?x13742 (* (- 1.0) S_3) ?x5834 ?x9352) 0.0))))
 (let (($x410377 (or $x2852 $x3039 (<= (+ ?x2157 ?x2115 ?x17518 ?x17459 (* (- 1.0) S_3) ?x15084 ?x15143) 0.0) $x84351)))
 (let (($x63525 (<= (+ ?x17518 (* (- (/ 1.0 3.0)) A_3) ?x2157 ?x2115 (* (- 1.0) S_3) ?x15084 ?x27170) 0.0)))
 (let (($x59380 (<= (+ ?x9288 (* (- (/ 1.0 2.0)) A_3) ?x12288 (* (- 1.0) S_3) ?x9089 ?x5834 ?x5828) 0.0)))
 (let ((?x1706 (* (- 1.0) S_3)))
 (let ((?x11300 (* (- (/ 3.0 5.0)) L_0)))
 (let ((?x12856 (* (/ 3.0 5.0) A_0)))
 (let ((?x11118 (* (/ 2.0 5.0) S_5)))
 (let (($x471822 (or $x2852 $x3039 (not (<= (+ A_3 ?x1821 ?x1848 A_1 L_0 ?x1075) 0.0)) (<= (+ ?x1162 S_4 A_1 ?x1706) 0.0))))
 (let (($x465480 (or $x2852 $x3039 $x28028 (<= (+ ?x1162 S_4 ?x12288 (* (- (/ 1.0 2.0)) S_3) ?x9089 L_1) 0.0))))
 (let (($x56661 (<= (+ ?x1738 (* (- 2.0) A_5) L_1 ?x1353 ?x1821 ?x2515 (* 2.0 A_2)) 0.0)))
 (let (($x4398 (<= (+ S_5 (* (- 1.0) A_5) A_3 ?x1821) 0.0)))
 (let ((?x4454 (* (- 5.0) A_1)))
 (let ((?x3149 (* 5.0 L_1)))
 (let ((?x3435 (* 5.0 B)))
 (let ((?x2616 (* (- 4.0) L_0)))
 (let ((?x13596 (* 4.0 A_0)))
 (let (($x1857 (<= (+ ?x1075 S_0 B L_1) 0.0)))
 (let ((?x1046 (* (- 1.0) L_0)))
 (let (($x970 (= ?x1055 ?x1046)))
 (let (($x434308 (or $x1702 $x2852 $x3092 (<= (+ ?x1821 ?x2437 ?x2443 (* 3.0 S_1)) 0.0) (<= (+ A_3 ?x1821 ?x1075 L_0 (* 2.0 S_1) B ?x1187) 0.0))))
 (let (($x3982 (not $x4027)))
 (let (($x410567 (or $x1871 $x2852 $x3430 $x3982 $x8271 (<= (+ A_2 ?x1839 ?x2437 ?x2443 ?x1872 ?x2515 ?x2516) 0.0))))
 (let (($x428942 (or $x2852 $x3039 (<= (+ ?x9288 (* (- (/ 1.0 2.0)) A_4) ?x12288 ?x9089 ?x1706 ?x5834 ?x5817) 0.0) (<= (+ ?x17518 ?x15086 ?x2157 ?x2115 ?x1706 ?x15084 ?x15134) 0.0))))
 (let (($x414399 (or $x2852 $x3039 (not $x14824) (<= (+ S_5 ?x1162 A_0 ?x1706 ?x1046 L_1) 0.0))))
 (let (($x1067628 (or $x2852 $x3039 (<= (+ S_5 ?x1258 A_1 ?x1706) 0.0) (<= (+ S_5 ?x1258 ?x12288 (* (- (/ 1.0 2.0)) S_3) ?x9089 L_1) 0.0))))
 (let (($x38527 (<= (+ (* (- 2.0) A_4) L_1 ?x1353 S_4 ?x2515 (* 2.0 A_2)) 0.0)))
 (let (($x2833 (<= (+ ?x1258 A_3) 0.0)))
 (let (($x5524 (<= (+ L_1 ?x1046) 0.0)))
 (let ((?x1895 (* 3.0 L_1)))
 (let ((?x2520 (* (- 2.0) L_0)))
 (let ((?x2519 (* 2.0 A_0)))
 (let (($x473903 (or $x1857 $x2852 (<= (+ S_5 ?x1258 ?x1187 ?x2519 ?x2520 B ?x1895 ?x2527 A_3) 0.0) $x5524)))
 (let (($x56454 (<= (+ ?x1187 S_5 (* (- 1.0) A_5) ?x2519 ?x2520 ?x1895 B ?x2527 A_4) 0.0)))
 (let (($x354312 (or $x970 $x1857 $x2852 (<= (+ ?x1187 S_4 ?x2519 ?x2520 ?x1895 ?x2526 ?x2527) 0.0))))
 (let ((?x2521 (* (- 3.0) A_1)))
 (let ((?x1931 (* 4.0 L_1)))
 (let ((?x2459 (* 3.0 B)))
 (let ((?x2505 (* (- 3.0) L_0)))
 (let ((?x2466 (* 3.0 A_0)))
 (let (($x354290 (or $x970 $x1857 $x2852 (<= (+ ?x1187 S_5 ?x2466 ?x2505 ?x2459 ?x1931 ?x2521) 0.0))))
 (let (($x2213 (<= (+ ?x1055 A_1 (* (- 1.0) S_2)) 0.0)))
 (let (($x142369 (or $x2213 (<= (+ ?x1187 S_5 ?x2466 (* (- 3.0) S_2) ?x2505 L_1) 0.0))))
 (let (($x1048272 (or $x2852 $x3039 (<= (+ ?x17469 ?x15083 ?x15130 ?x1706 ?x15074 ?x15131 (* (/ 2.0 3.0) A_2)) 0.0) (<= (+ ?x9288 (* (- (/ 1.0 2.0)) A_4) ?x5790 ?x5841 ?x1706 ?x5834 ?x5828) 0.0))))
 (let ((?x9388 (* (/ 3.0 2.0) A_2)))
 (let ((?x5846 (* (/ 1.0 2.0) S_4)))
 (let (($x4001 (<= (+ S_5 (* (- 1.0) A_5) ?x1187 A_0 ?x1046 ?x1775 ?x1353 A_3) 0.0)))
 (let (($x127647 (or $x2213 (<= (+ ?x16662 ?x16702 ?x16661 ?x84289 (* (- 1.0) S_2) ?x31548 ?x25392) 0.0))))
 (let (($x50481 (<= (+ S_5 ?x1162 (* (- 1.0) A_5) A_0 ?x1046 ?x1775 ?x1095 ?x1353 A_4) 0.0)))
 (let (($x456825 (or $x2852 $x3039 $x50481 (<= (+ S_5 ?x1162 (* (- 1.0) A_5) A_1 ?x1706 ?x1095 A_4) 0.0))))
 (let ((?x6668 (* (- (/ 1.0 2.0)) S_3)))
 (let ((?x1323 (* (- 1.0) A_5)))
 (let (($x480887 (or $x2852 $x3039 $x28028 (<= (+ S_5 ?x1162 ?x1323 ?x12288 ?x6668 ?x9089 L_1 ?x1095 A_4) 0.0))))
 (let (($x26949 (<= (+ A_3 ?x1821 S_2 B ?x1187) 0.0)))
 (let (($x460606 (or $x1702 $x2852 (<= (+ (* (- (/ 2.0 3.0)) S_4) ?x15085 ?x15123 S_2) 0.0) $x26949)))
 (let (($x405070 (or $x1857 $x2852 (<= (+ ?x1187 S_3 A_0 ?x1046 ?x1775 B ?x1353) 0.0) $x5524)))
 (let (($x8603 (<= (+ ?x5754 ?x5833 (* (- (/ 1.0 2.0)) S_4) S_2) 0.0)))
 (let (($x346583 (or $x970 $x1857 $x2852 (<= (+ S_5 ?x1258 ?x2519 ?x2520 ?x2526 ?x1895 ?x2521 A_2) 0.0))))
 (let (($x76069 (<= (+ S_5 ?x1258 ?x2466 ?x2505 ?x1931 ?x2459 (* (- 4.0) A_1) A_3) 0.0)))
 (let (($x51513 (<= (+ S_5 ?x1162 ?x2466 ?x2505 ?x2459 ?x1931 (* (- 4.0) A_1) A_2) 0.0)))
 (let ((?x59558 (* (/ 1.0 4.0) A_2)))
 (let ((?x1843 (* (- 1.0) S_2)))
 (let ((?x31086 (* (- (/ 1.0 4.0)) A_3)))
 (let (($x467504 (or $x1702 $x2852 (<= (+ A_2 ?x1821 ?x1075 L_0 S_1 ?x1055) 0.0) (<= (+ ?x5844 ?x13444 ?x9527 S_1 ?x5754) 0.0))))
 (let (($x345692 (or $x970 $x1857 $x2852 (<= (+ S_5 ?x1162 ?x2519 ?x2520 ?x1895 ?x2526 ?x2527) 0.0))))
 (let (($x345685 (or $x970 $x1857 $x2852 (<= (+ ?x1162 S_4 A_0 ?x1046 ?x1775 B ?x1353) 0.0))))
 (let (($x345664 (or $x970 $x1857 $x2852 (<= (+ S_5 ?x1162 ?x1323 A_0 ?x1046 ?x1775 ?x1353 A_4) 0.0))))
 (let (($x345565 (or $x970 $x1857 $x2852 (<= (+ S_5 ?x1258 A_0 ?x1046 B ?x1775 ?x1353) 0.0))))
 (let (($x66050 (<= (+ ?x1839 (* (- (/ 1.0 2.0)) A_3) ?x13444 (* (/ 3.0 2.0) S_3) ?x9527 ?x5834 ?x5828) 0.0)))
 (let (($x6455 (<= (+ ?x1839 A_4 ?x1162 S_3) 0.0)))
 (let (($x96962 (or $x2213 (<= (+ S_5 ?x1162 ?x2519 ?x2520 (* (- 2.0) S_2) L_1) 0.0))))
 (let (($x20397 (<= (+ ?x2200 (* (- (/ 2.0 3.0)) A_0) (* (/ 2.0 3.0) L_0) ?x1055 ?x1095 A_1) 0.0)))
 (let (($x1067698 (or $x2852 $x3039 $x28028 (<= (+ S_5 ?x1162 ?x1323 ?x12288 ?x6668 ?x9527 ?x1095 A_4) 0.0))))
 (let (($x1055951 (or $x2852 $x3039 (<= (+ (* (- (/ 1.0 2.0)) A_4) ?x5790 ?x5841 ?x5846 ?x1706 ?x5834 ?x5817) 0.0) (<= (+ ?x15083 (* (/ 2.0 3.0) S_4) ?x15130 ?x15074 ?x1706 ?x15131 ?x15132) 0.0))))
 (let (($x49656 (<= (+ (* (- (/ 1.0 3.0)) A_3) (* (/ 1.0 3.0) S_4) ?x15093 ?x15119 ?x1843 ?x15084 ?x27170) 0.0)))
 (let (($x340233 (or $x970 $x1857 $x2852 (<= (+ ?x1162 S_4 ?x2519 ?x2520 ?x2526 ?x1895 ?x2521 A_2) 0.0))))
 (let (($x474111 (or $x4398 (<= (+ (* (/ 3.0 2.0) S_5) ?x40835 ?x1821 ?x13444 ?x9527 ?x39194 ?x9388) 0.0))))
 (let (($x444223 (or $x2852 (<= (+ ?x1839 ?x1162 L_1 ?x1353 (* 2.0 S_3) ?x1095 A_2) 0.0) $x6455)))
 (let (($x54620 (<= (+ ?x9288 (* (- (/ 1.0 2.0)) A_3) ?x13742 ?x5790 ?x5841 ?x1706 ?x1095 ?x5828 ?x9352) 0.0)))
 (let ((?x27145 (* (/ 2.0 3.0) A_2)))
 (let ((?x15140 (* (- (/ 2.0 3.0)) A_3)))
 (let (($x1062640 (or $x2852 $x3039 (<= (+ ?x17469 ?x15140 ?x17516 ?x15130 ?x1706 ?x15074 ?x15533 ?x27145 ?x15070) 0.0) $x54620)))
 (let (($x488186 (or $x2852 $x3039 (<= (+ (* (- (/ 1.0 2.0)) A_3) ?x5846 ?x5790 ?x5841 ?x1706 ?x5834 ?x5828) 0.0) (<= (+ ?x15140 (* (/ 2.0 3.0) S_4) ?x15130 ?x1706 ?x15074 ?x15131 ?x27145) 0.0))))
 (let (($x1067508 (or $x2852 $x3039 (<= (+ ?x17518 ?x17459 ?x15093 ?x15119 L_1 ?x15084 ?x1353 ?x15134) 0.0) (<= (+ ?x9288 ?x13742 ?x5790 ?x5841 ?x1706 ?x5834 ?x5817) 0.0))))
 (let (($x446610 (or $x2852 $x3039 (<= (+ ?x17469 ?x17516 ?x15130 ?x15074 ?x1706 ?x15131 ?x15132) 0.0) $x28028)))
 (let (($x55935 (or $x2213 (<= (+ ?x1187 S_4 ?x2519 (* (- 2.0) S_2) ?x2520 L_1) 0.0))))
 (let (($x54193 (or $x2213 (<= (+ S_5 ?x1162 ?x1323 A_0 ?x1843 ?x1046 L_1 ?x1095 A_4) 0.0))))
 (let (($x40757 (<= (+ ?x17518 (* (- (/ 1.0 3.0)) A_3) ?x17459 ?x15093 ?x15119 ?x1843 ?x15131 ?x27170 ?x15143) 0.0)))
 (let (($x336862 (or $x970 $x1857 $x2852 (<= (+ S_5 ?x1162 ?x1323 ?x2519 ?x2520 ?x1895 B ?x2521 A_2 A_4) 0.0))))
 (let (($x31559 (<= (+ ?x16662 (* (- (/ 1.0 4.0)) A_4) ?x16702 ?x16661 ?x1843 ?x31548 (* (/ 1.0 4.0) A_3)) 0.0)))
 (let (($x325451 (or $x970 $x1857 $x2852 (<= (+ ?x1162 A_0 S_3 ?x1046 B ?x1775 ?x2527 A_2) 0.0))))
 (let (($x326420 (or $x970 $x1857 $x2852 (<= (+ S_5 ?x1323 A_0 ?x1046 ?x1775 B ?x2527 A_2) 0.0))))
 (let (($x331550 (or $x970 $x1857 $x2852 (<= (+ ?x1258 S_4 A_0 ?x1046 B ?x1775 ?x2527 A_2) 0.0))))
 (let (($x25819 (or $x2213 (<= (+ (* (- (/ 1.0 2.0)) A_4) ?x5846 ?x12288 ?x9089 ?x1843 ?x5834 ?x5828) 0.0))))
 (let (($x25493 (or $x2213 (<= (+ ?x5844 ?x9288 ?x13742 A_0 ?x1843 ?x1046 ?x5754 ?x5834 ?x9352) 0.0))))
 (let (($x18335 (<= (+ (* (- (/ 1.0 2.0)) A_3) ?x12288 (* (/ 1.0 2.0) S_3) ?x9089 ?x1843 ?x5834 ?x5828) 0.0)))
 (let (($x1061349 (or (<= (+ ?x2157 ?x2115 (* (/ 1.0 3.0) S_4) ?x1706) 0.0) $x2852 $x3039 (<= (+ ?x12288 ?x9089 ?x5846 ?x1706) 0.0))))
 (let (($x1021174 (or $x1857 $x2852 (<= (+ ?x1258 ?x1187 S_4 A_0 ?x1046 ?x1775 ?x1353 A_3) 0.0) $x5524)))
 (let (($x461743 (or $x1702 $x2852 (<= (+ A_2 ?x1821 ?x1075 L_0 ?x1848 ?x1095 A_1) 0.0) $x3982)))
 (let (($x329533 (or $x970 $x1857 $x2852 (<= (+ S_5 ?x1323 ?x2519 ?x2520 ?x1895 ?x2526 ?x2521 A_3) 0.0))))
 (let (($x15090 (or $x2213 (<= (+ ?x15086 (* (/ 1.0 3.0) S_4) ?x15093 ?x15119 ?x1843 ?x15084 ?x15134) 0.0))))
 (let (($x13883 (or $x2213 (<= (+ ?x1258 ?x1187 S_4 A_0 ?x1843 ?x1046 L_1 ?x1095 A_3) 0.0))))
 (let (($x8056 (<= (+ ?x9288 (* (- (/ 1.0 2.0)) A_4) ?x5844 A_0 ?x1843 ?x1046 ?x5754 ?x5834 ?x5817) 0.0)))
 (let (($x324630 (or $x970 $x1857 $x2852 (<= (+ ?x1258 S_4 ?x2519 ?x2520 ?x1895 ?x2526 ?x2521 A_3) 0.0))))
 (let (($x2514 (<= (+ ?x2466 ?x2505 S_4 ?x1931 (* 4.0 B) (* (- 4.0) A_1)) 0.0)))
 (let (($x2500 (<= (+ S_5 ?x2466 ?x2505 ?x1323 ?x1931 ?x2459 (* (- 4.0) A_1) A_4) 0.0)))
 (let (($x3557 (or $x2213 (<= (+ S_5 ?x1323 ?x1187 A_0 ?x1843 ?x1046 L_1 ?x1095 A_3) 0.0))))
 (and (<= ?x1055 ?x1046) (or $x970 $x1857 (<= (+ S_1 L_1 B ?x1353) 0.0)) $x3557 (or (<= (+ ?x1075 L_0 ?x1706 ?x1848 ?x2515 ?x2516) 0.0) $x2852 $x3039) (or $x970 $x1857 $x2500 $x2852) (or $x970 $x1857 $x2514 $x2852) $x324630 (or $x2213 (<= (+ ?x1187 S_3 A_0 ?x1843 ?x1046 L_1) 0.0)) (or $x2213 $x8056) (or $x2213 (<= (+ ?x12963 ?x12965 ?x12966 ?x1843) 0.0)) $x13883 $x15090 (or $x970 $x1857 (<= (+ A_0 ?x1046 S_2 ?x1775 ?x2526 ?x2527) 0.0) $x2852) (or $x2213 (<= (+ ?x2519 ?x2520 S_3 (* (- 3.0) S_2)) 0.0)) (or $x2213 (<= (+ ?x17518 ?x17459 ?x15093 ?x15119 ?x1843 ?x15084 ?x15134) 0.0)) $x329533 $x461743 $x1021174 (or $x2213 (<= (+ ?x16702 ?x16661 (* (/ 1.0 4.0) S_4) ?x1843) 0.0)) $x1061349 (or $x2213 (<= (+ ?x9288 ?x13742 ?x12288 ?x9089 ?x1843 ?x5834 ?x5828) 0.0)) (or $x2213 $x18335) $x25493 $x25819 (or $x2213 (<= (+ S_5 ?x1258 A_0 ?x1843 ?x1046 L_1) 0.0)) (or $x2213 (<= (+ ?x17518 ?x15086 ?x15093 ?x15119 ?x1843 ?x15084 ?x27170) 0.0)) $x331550 $x326420 $x325451 (or $x2852 $x3039 (<= (+ ?x13444 ?x9527 ?x6668 S_1) 0.0)) (or $x2213 $x31559) $x336862 (or $x2213 $x40757) $x54193 (or $x1702 $x8603 $x26957) $x55935 $x446610 $x1067508 $x488186 $x1062640 $x444223 $x474111 $x340233 (or $x2213 $x49656) (or $x2213 (<= (+ ?x1162 S_4 A_0 ?x1843 ?x1046 L_1) 0.0)) $x1055951 $x1067698 (or $x970 $x1857 (<= (+ ?x2519 ?x2520 S_3 ?x1895 ?x2459 ?x2521) 0.0) $x2852) (or $x1702 $x2852 $x3092 $x20397 $x27594) $x96962 (or $x2852 $x6455 $x66050) $x345565 $x345664 $x345685 $x345692 $x467504 (or $x2213 (<= (+ ?x16662 ?x31086 ?x16702 ?x16661 ?x1843 ?x31548 ?x59558) 0.0)) (or $x970 $x1857 $x2852 $x51513) (or $x970 $x1857 $x2852 $x76069) $x346583 (or $x1702 $x2852 $x8603 $x26949) $x405070 $x460606 $x480887 $x456825 $x127647 (or $x1857 $x2852 $x4001 $x5524) (or $x2833 (<= (+ (* (- (/ 3.0 2.0)) A_4) ?x5846 ?x13444 ?x9527 ?x39194 ?x9388) 0.0)) $x1048272 $x142369 $x354290 $x354312 (or $x970 $x1857 $x2852 $x56454) $x473903 (or $x2833 $x38527) $x1067628 $x414399 (or $x1702 $x2852 $x3092 $x27594 $x31533 $x104470) $x428942 $x410567 $x434308 (or $x970 $x1857 $x2852 (<= (+ S_5 ?x13596 ?x2616 ?x3435 ?x3149 ?x4454) 0.0)) (or $x4398 $x56661) $x465480 $x471822 (or $x2852 $x3039 (<= (+ ?x11118 ?x12856 ?x11300 ?x1706) 0.0) $x28028) (or $x2852 $x3039 $x59380 $x63525) (or $x1702 $x2852 $x3092 $x8664 $x11301 $x43463 $x61137) (or $x1702 $x2852 $x3092 $x8664 $x27594 $x84282) (or $x1702 $x2852 $x13788 $x41340 $x42159 $x84351) $x410377 $x1045778 $x453298 (or $x2852 $x3039 $x12993 $x42969) (or $x3416 $x14433) (or $x1702 $x2852 $x3092 $x31533 $x43463 $x61137 $x104470) (or $x2852 $x9308 $x27594 $x31596 $x42833 $x104470) $x1025423 $x1028586 $x1024867 (or $x1702 $x2852 $x27143 $x39167 $x62199) $x1010613 (or $x1702 $x3094 $x8578 $x42833 $x104470) (or $x2852 $x8811 $x9308 $x31596 $x104470) $x1019784 $x1025137 (or $x1855 $x2852 $x3430 $x3982 $x8271 $x59501) (or $x1855 $x3430 $x4027 $x8271 $x13656 $x16734 $x18270 $x51725 $x59501 $x169851) (or $x1702 $x2852 $x8874 $x27594 $x102282) (or $x2852 $x8271 $x12576 $x16664 $x26953 (not $x36776)) (or $x1702 $x2852 $x8674 $x12995 $x38086) $x1062907 $x1040685 $x1033622 (or $x2852 $x9308 $x27143 $x31533 $x42833 $x62199 $x104470) (or $x1702 $x2852 $x31596 $x39167 $x39961) (or $x1702 $x2852 $x8664 $x13788 $x41340 $x48841 $x84282) (or $x1702 $x2852 $x8874 $x27209 $x39961 $x104470) (or $x1702 (not $x3094) $x3055 $x8874 $x102282) $x399102 $x1013969 (or $x2852 $x8811 $x9308 $x27209 $x104470) (or $x1702 $x2852 $x8874 $x38491 $x39542 $x42833) (or $x1702 $x2852 $x27209 $x39167 $x39961) $x1058817 $x1057272 $x408663 (or $x3416 (<= (+ ?x9288 A_3 ?x40835 ?x13444 ?x9527 ?x5834 ?x5828) 0.0) $x57947) (or $x1871 $x2852 $x3430 $x8271 $x13656 $x16734 $x18270 $x51725 $x59501) $x1060738 (or $x3416 $x15734) $x1059599 $x1046566 (or $x2852 $x3385 $x8271 $x17183 $x38710 $x100802) (or $x1871 $x4027 $x5599 $x8271 $x16736 $x27583 $x51514 $x169851) (or $x3416 (<= (+ ?x5754 ?x5833 ?x9288 ?x40835 ?x39194 (* (/ 3.0 2.0) A_3)) 0.0)) $x415752 (or $x8271 $x12576 $x16664 $x26957 $x202071) (or $x2852 $x8271 $x16664 $x26953 $x36776 $x50767 $x97719) $x473056 (or $x1702 $x2852 $x13788 $x42159 $x54619 $x84351) $x1052778 (or $x2852 $x5599 $x16736 $x27583 $x42833 $x51514) (or $x1702 $x2852 $x12995 $x38086 $x43003) (or $x1702 $x2852 $x3094 $x12995 $x27594 $x42919) (or $x1702 $x2852 $x38086 $x42919 $x63600 (not $x172743)) (or $x1702 $x2852 $x8636 $x12993 $x42919 $x63600) (or $x1702 $x2852 $x8664 $x42833 $x48841 $x54619 $x84282) (or $x1702 $x2852 $x11301 $x20392 $x42833 $x61137 $x63600) (or $x1702 $x2852 $x13788 $x20392 $x43463 $x48841 $x84282) (or $x1702 $x3094 $x8578 $x42833 $x42919) (or $x1702 $x3055 $x8874 $x27143 $x39542 $x62199 $x102282) (or $x1702 $x2852 $x3094 $x12993 $x42919 $x43463) $x1875 $x1853 (<= (+ ?x1162 S_3 L_1) 0.0) (<= (+ ?x1839 S_4) 0.0) (<= (+ L_1 ?x1353 S_1) 0.0) (<= (+ ?x1075 L_0 S_0) 0.0) $x2525 (<= (+ ?x1706 S_2) 0.0) $x3035 (<= (+ ?x1187 S_2 L_1) 0.0) (<= (+ ?x1843 S_1) 0.0) $x2851 (<= (+ ?x1821 S_3) 0.0) (<= (+ (* (- 1.0) S_1) S_0) 0.0) (<= (+ ?x1258 S_4 L_1) 0.0) (<= (+ ?x1258 ?x1095 A_3) 0.0) (<= (+ S_5 ?x1323 L_1) 0.0) $x4399 (<= (+ ?x1323 ?x1095 A_4) 0.0) (<= (+ ?x1162 ?x1095 A_2) 0.0))))))))))))))))))))))))))))))))))))))))))))))))))))))))))))))))))))))))))))))))))))))))))))))))))))))))))))))))))))))))))))))))))))))))))))))))))))))))))))))))))))))))))))))))))))))))))))))))))))))))))))))))))))))))))))))))))))))))))))))))))))))))))))))))))))))))))))))))))))))))))))))))))))))))))))))))))))))
(check-sat)
